%%% static parameters %%%
timespan = 1;
Fact = [2];
Distr1 = [5];
Distr2 = [10];
Clients_N = [100];
Demand_W = [15];
Lt0 = [4];
Lt1 = [4];
SS_ = [0.85];
DS_D = [8];
K = [200];
MA = [500];
%%% dynamic parameters %%%
lost_ratio_sales_ret_th = 0.6571213562834477;
lost_ratio_sales_ret_w = 69;
lost_ratio_sales_dis_th = 0.9424668061787821;
lost_ratio_sales_dis_w = 59;
lost_ratio_sales_fac_th = 0.6213771564400659;
lost_ratio_sales_fac_w = 82;
stock_customer_MA_mean_relative_th = 0.34307997432806137;
stock_customer_MA_mean_relative_w = 62;
stock_distributor_MA_mean_relative_th = 0.7064844515022592;
stock_distributor_MA_mean_relative_w = 38;
stock_retailer_MA_mean_relative_th = 0.1552453171747744;
stock_retailer_MA_mean_relative_w = 75;
stock_factory_MA_mean_relative_th = 0.6030061548495175;
stock_factory_MA_mean_relative_w = 67;
